benchmarks_vrp/CMT1/tsp_classic/CMT1_2.vrp
NAME: CMT1_2
TYPE: CVRP
COMMENT: 524.61 - Cluster Nr.2
DIMENSION: 11
CAPACITY: 160
EDGE_WEIGHT_TYPE: EUC_2D
NODE_COORD_TYPE: TWOD_COORDS
NODE_COORD_SECTION: 
5 40 30
9 45 35
1 30 40
3 48 28
11 32 22
7 46 10
2 31 32
10 36 16
4 51 21
6 52 33
8 39 10
DEPOT_SECTION: 
1
-1
DEMAND_SECTION: 
6 11
10 10
2 29
7 23
4 5
8 10
5 21
11 9
3 18
9 15
1 0
EOF
