benchmarks_vrp/CMT1/tsp_classic/CMT1_2.tour
NAME: CMT1_2 solution
TYPE: TOUR
TOUR_SECTION:
1 2 11 10 8 7 4 3 6 9 5 -1
-1
EOF